
Gurobi 10.0.1 (linux64) logging started Thu May 25 17:01:36 2023

Set parameter LogFile to value "logFiles/N-1L-B/N-1L-13U-10F-23V-120D/basic-05-25-2023, 17-01-H70-P50-O15.log"
Gurobi Optimizer version 10.0.1 build v10.0.1rc0 (linux64)

CPU model: Intel(R) Xeon(R) Gold 5115 CPU @ 2.40GHz, instruction set [SSE2|AVX|AVX2|AVX512]
Thread count: 20 physical cores, 40 logical processors, using up to 20 threads

Optimize a model with 59682 rows, 924038 columns and 4819389 nonzeros
Model fingerprint: 0x292494da
Variable types: 216034 continuous, 708004 integer (708004 binary)
Coefficient statistics:
  Matrix range     [1e+00, 2e+05]
  Objective range  [4e+01, 3e+07]
  Bounds range     [1e+00, 1e+00]
  RHS range        [1e+00, 1e+06]
Presolve removed 27552 rows and 27591 columns (presolve time = 5s) ...
Presolve removed 27552 rows and 27615 columns (presolve time = 10s) ...
Presolve removed 27552 rows and 27615 columns (presolve time = 15s) ...
Presolve removed 27552 rows and 27615 columns (presolve time = 20s) ...
Presolve removed 27552 rows and 27615 columns (presolve time = 25s) ...
Presolve removed 27713 rows and 31940 columns (presolve time = 30s) ...
Presolve removed 27678 rows and 31905 columns
Presolve time: 32.41s
Presolved: 32004 rows, 892133 columns, 4273985 nonzeros
Variable types: 211297 continuous, 680836 integer (680836 binary)
Deterministic concurrent LP optimizer: primal simplex, dual simplex, and barrier
Showing barrier log only...

Root barrier log...

Ordering time: 1.65s

Barrier statistics:
 AA' NZ     : 2.136e+06
 Factor NZ  : 7.587e+06 (roughly 400 MB of memory)
 Factor Ops : 1.130e+10 (less than 1 second per iteration)
 Threads    : 17

                  Objective                Residual
Iter       Primal          Dual         Primal    Dual     Compl     Time
   0  -1.74093607e+16  1.71745409e+13  1.05e+09 7.50e+06  1.18e+12    42s
   1  -3.52219310e+15  2.24112351e+13  2.14e+08 9.02e+06  2.40e+11    43s
   2  -1.57805321e+15  2.30587659e+13  9.58e+07 1.18e+06  1.12e+11    43s
   3  -2.75027675e+13  1.81427887e+13  1.68e+06 4.46e+03  1.99e+09    44s
   4  -5.29754328e+12  1.34136224e+13  3.24e+05 2.13e+02  3.89e+08    44s
   5  -3.93277457e+12  1.16902111e+13  2.41e+05 2.27e+01  2.91e+08    45s
   6  -1.74079156e+12  1.04529999e+13  1.07e+05 1.98e-08  1.32e+08    45s
   7  -4.12554067e+11  8.94089448e+12  2.53e+04 1.01e-07  3.41e+07    45s
   8  -3.13086161e+11  6.85489816e+12  1.92e+04 3.73e-08  2.42e+07    46s
   9  -2.03754585e+11  4.62516507e+12  1.25e+04 2.23e-08  1.46e+07    46s
  10  -6.36647474e+10  2.68221454e+12  3.99e+03 2.70e-08  4.95e+06    47s
  11  -4.81956215e+10  1.01262724e+12  3.04e+03 2.84e-08  2.80e+06    47s
  12  -2.09239774e+10  5.74535444e+11  1.38e+03 2.83e-08  1.23e+06    47s
  13  -1.44622542e+09  2.09525622e+11  1.91e+02 2.86e-08  2.24e+05    48s
  14   2.68340051e+08  1.45750864e+11  8.70e+01 2.96e-08  1.27e+05    48s
  15   6.46309128e+08  1.04374185e+11  6.41e+01 3.21e-07  9.10e+04    48s
  16   1.04546797e+09  8.50351800e+10  4.00e+01 2.85e-07  6.74e+04    49s
  17   1.19149571e+09  7.63088547e+10  3.13e+01 2.71e-07  5.80e+04    49s
  18   1.24505881e+09  6.24631444e+10  2.82e+01 2.99e-07  4.89e+04    49s
  19   1.36661713e+09  5.70474482e+10  2.11e+01 3.35e-07  4.22e+04    50s
  20   1.43282991e+09  4.70045564e+10  1.74e+01 3.05e-07  3.48e+04    51s
  21   1.50219592e+09  3.63028486e+10  1.38e+01 3.63e-07  2.71e+04    51s
  22   1.54263731e+09  2.70661582e+10  1.18e+01 2.74e-07  2.11e+04    52s
  23   1.57753419e+09  2.24476558e+10  1.00e+01 2.63e-07  1.75e+04    52s
  24   1.59811080e+09  1.94961328e+10  9.14e+00 2.60e-07  1.55e+04    53s
  25   1.64956887e+09  1.61974635e+10  6.99e+00 3.88e-07  1.24e+04    53s
  26   1.66984074e+09  1.44023096e+10  6.02e+00 2.84e-07  1.08e+04    54s
  27   1.68242574e+09  1.31674800e+10  5.49e+00 3.24e-07  9.83e+03    54s
  28   1.70299891e+09  1.16873101e+10  4.85e+00 2.49e-07  8.63e+03    55s
  29   1.74214709e+09  1.01319081e+10  3.24e+00 2.56e-07  6.74e+03    55s
  30   1.75517414e+09  8.94630976e+09  2.88e+00 2.30e-07  5.76e+03    56s
  31   1.77010100e+09  8.17544650e+09  2.68e+00 3.95e-07  5.11e+03    56s
  32   1.80393747e+09  6.84232270e+09  2.13e+00 3.16e-07  3.91e+03    57s
  33   1.81228842e+09  6.24991221e+09  2.02e+00 4.47e-07  3.45e+03    57s
  34   1.83653922e+09  5.34239579e+09  1.71e+00 5.21e-07  2.68e+03    58s
  35   1.86606210e+09  5.04186003e+09  1.37e+00 4.13e-07  2.32e+03    58s
  36   1.86662060e+09  4.45452949e+09  1.32e+00 4.46e-07  1.91e+03    59s
  37   1.89999362e+09  3.83523221e+09  9.76e-01 3.85e-07  1.37e+03    59s
  38   1.93299661e+09  3.38762185e+09  5.68e-01 5.75e-07  9.61e+02    60s
  39   1.93810752e+09  2.88885321e+09  5.24e-01 2.93e-07  6.35e+02    60s
  40   1.94721353e+09  2.62069003e+09  4.61e-01 4.68e-07  4.50e+02    61s
  41   1.95657705e+09  2.51201250e+09  3.91e-01 3.20e-07  3.66e+02    61s
  42   1.96586109e+09  2.42395572e+09  3.27e-01 2.37e-07  2.97e+02    62s
  43   1.98380931e+09  2.26282170e+09  1.99e-01 3.28e-07  1.76e+02    62s
  44   1.98969172e+09  2.21056964e+09  1.70e-01 3.51e-07  1.39e+02    63s
  45   1.99876653e+09  2.16073557e+09  1.34e-01 2.34e-07  1.01e+02    63s
  46   2.00296532e+09  2.15129225e+09  1.18e-01 2.38e-07  9.18e+01    64s
  47   2.00592566e+09  2.14059721e+09  1.10e-01 2.74e-07  8.32e+01    64s
  48   2.01071350e+09  2.13263642e+09  9.35e-02 2.60e-07  7.47e+01    65s
  49   2.01326146e+09  2.12354877e+09  8.52e-02 2.62e-07  6.73e+01    65s
  50   2.01905678e+09  2.10684542e+09  6.84e-02 3.73e-07  5.34e+01    66s
  51   2.02318617e+09  2.10378458e+09  5.75e-02 3.16e-07  4.87e+01    66s
  52   2.02912948e+09  2.09178553e+09  4.27e-02 3.61e-07  3.76e+01    67s
  53   2.02975496e+09  2.09080103e+09  4.15e-02 3.73e-07  3.66e+01    67s
  54   2.03264080e+09  2.08951825e+09  3.65e-02 5.20e-07  3.40e+01    68s
  55   2.03471607e+09  2.08349056e+09  3.33e-02 3.90e-07  2.92e+01    68s
  56   2.03843203e+09  2.07628308e+09  2.61e-02 2.45e-07  2.26e+01    69s
  57   2.04035171e+09  2.07557559e+09  2.30e-02 2.93e-07  2.10e+01    69s
  58   2.04087865e+09  2.07336763e+09  2.20e-02 2.46e-07  1.94e+01    70s
  59   2.04166994e+09  2.07286541e+09  2.07e-02 3.71e-07  1.86e+01    70s
  60   2.04238154e+09  2.07217415e+09  1.97e-02 3.40e-07  1.77e+01    71s
  61   2.04290511e+09  2.07133273e+09  1.90e-02 2.74e-07  1.69e+01    71s
  62   2.04412630e+09  2.07070906e+09  1.72e-02 2.50e-07  1.58e+01    72s
  63   2.04509684e+09  2.06897693e+09  1.60e-02 2.17e-07  1.42e+01    72s
  64   2.04661830e+09  2.06751762e+09  1.41e-02 2.41e-07  1.24e+01    73s
  65   2.04686538e+09  2.06697232e+09  1.38e-02 4.16e-07  1.19e+01    73s
  66   2.04873982e+09  2.06651718e+09  1.15e-02 2.97e-07  1.05e+01    74s
  67   2.05077373e+09  2.06524135e+09  9.43e-03 4.03e-07  8.57e+00    74s
  68   2.05239615e+09  2.06469275e+09  7.83e-03 2.92e-07  7.27e+00    75s
  69   2.05490279e+09  2.06394222e+09  5.38e-03 3.49e-07  5.33e+00    75s
  70   2.05598055e+09  2.06369171e+09  4.43e-03 2.24e-07  4.54e+00    76s
  71   2.05737467e+09  2.06282631e+09  3.22e-03 2.45e-07  3.21e+00    76s
  72   2.05841888e+09  2.06229462e+09  2.33e-03 2.31e-07  2.29e+00    77s
  73   2.05903250e+09  2.06187201e+09  1.82e-03 3.18e-07  1.68e+00    77s
  74   2.05912165e+09  2.06182787e+09  1.74e-03 2.00e-07  1.60e+00    78s
  75   2.05948420e+09  2.06179073e+09  1.46e-03 2.85e-07  1.37e+00    78s
  76   2.05995192e+09  2.06158625e+09  1.06e-03 2.66e-07  9.69e-01    79s
  77   2.06014071e+09  2.06154867e+09  8.99e-04 2.91e-07  8.34e-01    79s
  78   2.06047643e+09  2.06141061e+09  6.23e-04 2.37e-07  5.55e-01    80s
  79   2.06052252e+09  2.06134967e+09  5.89e-04 2.51e-07  4.92e-01    80s
  80   2.06086356e+09  2.06128173e+09  3.06e-04 1.96e-07  2.49e-01    81s
  81   2.06102751e+09  2.06125942e+09  1.71e-04 2.34e-07  1.39e-01    81s
  82   2.06122185e+09  2.06125176e+09  1.47e-05 2.11e-07  1.75e-02    82s
  83   2.06124031e+09  2.06124757e+09  4.62e-06 2.07e-07  4.25e-03    82s
  84   2.06124477e+09  2.06124664e+09  4.02e-06 2.22e-07  1.09e-03    82s
  85   2.06124645e+09  2.06124648e+09  5.25e-08 3.00e-07  1.93e-05    83s
  86   2.06124647e+09  2.06124647e+09  4.94e-09 4.03e-07  2.00e-07    83s
  87   2.06124647e+09  2.06124647e+09  3.35e-10 2.39e-07  2.01e-10    83s

Barrier solved model in 87 iterations and 83.49 seconds (79.56 work units)
Optimal objective 2.06124647e+09


Root crossover log...

   27664 DPushes remaining with DInf 0.0000000e+00                84s
       0 DPushes remaining with DInf 0.0000000e+00                84s

     990 PPushes remaining with PInf 0.0000000e+00                84s
       0 PPushes remaining with PInf 0.0000000e+00                84s

  Push phase complete: Pinf 0.0000000e+00, Dinf 1.0529485e+02     84s


Root simplex log...

Iteration    Objective       Primal Inf.    Dual Inf.      Time
   28551    2.0612465e+09   0.000000e+00   1.052948e+02     84s
   28553    2.0612465e+09   0.000000e+00   0.000000e+00     84s
Concurrent spin time: 0.08s

Solved with barrier
   28599    2.0612465e+09   0.000000e+00   0.000000e+00     85s
Extra simplex iterations after uncrush: 46

Root relaxation: objective 2.061246e+09, 28599 iterations, 49.07 seconds (34.16 work units)

    Nodes    |    Current Node    |     Objective Bounds      |     Work
 Expl Unexpl |  Obj  Depth IntInf | Incumbent    BestBd   Gap | It/Node Time

     0     0 2.0612e+09    0  231          - 2.0612e+09      -     -   88s
H    0     0                    2.046878e+09 2.0612e+09  0.70%     -  106s

Explored 1 nodes (33539 simplex iterations) in 106.49 seconds (95.64 work units)
Thread count was 20 (of 40 available processors)

Solution count 1: 2.04688e+09 

Optimal solution found (tolerance 1.00e-02)
Best objective 2.046878154373e+09, best bound 2.061246466620e+09, gap 0.7020%
Gurobi Optimizer version 10.0.1 build v10.0.1rc0 (linux64)

CPU model: Intel(R) Xeon(R) Gold 5115 CPU @ 2.40GHz, instruction set [SSE2|AVX|AVX2|AVX512]
Thread count: 20 physical cores, 40 logical processors, using up to 20 threads

Optimize a model with 59125 rows, 937116 columns and 4469689 nonzeros
Model fingerprint: 0x0c23dbd6
Variable types: 1879 continuous, 935237 integer (935237 binary)
Coefficient statistics:
  Matrix range     [1e+00, 2e+05]
  Objective range  [4e+01, 3e+07]
  Bounds range     [1e+00, 3e+05]
  RHS range        [1e+00, 1e+06]
Presolve removed 56449 rows and 907208 columns
Presolve time: 1.78s
Presolved: 2676 rows, 29908 columns, 113781 nonzeros
Variable types: 566 continuous, 29342 integer (29325 binary)
Found heuristic solution: objective 2.091284e+09
Deterministic concurrent LP optimizer: primal and dual simplex
Showing first log only...

Concurrent spin time: 0.05s

Solved with primal simplex
Extra simplex iterations after uncrush: 232

Root relaxation: objective 2.575994e+09, 9223 iterations, 0.32 seconds (0.23 work units)

    Nodes    |    Current Node    |     Objective Bounds      |     Work
 Expl Unexpl |  Obj  Depth IntInf | Incumbent    BestBd   Gap | It/Node Time

     0     0 2.5760e+09    0   28 2.0913e+09 2.5760e+09  23.2%     -    2s
H    0     0                    2.566096e+09 2.5760e+09  0.39%     -    2s

Explored 1 nodes (9281 simplex iterations) in 2.85 seconds (2.38 work units)
Thread count was 20 (of 40 available processors)

Solution count 2: 2.5661e+09 2.09128e+09 

Optimal solution found (tolerance 1.00e-02)
Best objective 2.566096071173e+09, best bound 2.575993822951e+09, gap 0.3857%
